(declare-fun var0 () String)
(assert (RegexIn var0 (RegexConcat (RegexUnion (RegexStar (Str2Reg "hhh")) (RegexStar (Str2Reg "ii"))) (RegexConcat (RegexPlus (RegexStar (Str2Reg "g"))) (RegexConcat (RegexUnion (RegexStar (Str2Reg "d")) (RegexUnion (Str2Reg "e") (Str2Reg "f"))) (RegexConcat (RegexStar (RegexPlus (Str2Reg "c"))) (RegexConcat (RegexStar (RegexUnion (Str2Reg "aa") (Str2Reg "bb"))) (RegexConcat (RegexPlus (RegexUnion (Str2Reg "8") (Str2Reg "9"))) (RegexConcat (RegexStar (RegexUnion (Str2Reg "66") (Str2Reg "77"))) (RegexConcat (RegexStar (RegexUnion (Str2Reg "44") (Str2Reg "555"))) (RegexConcat (RegexStar (RegexStar (Str2Reg "33"))) (RegexUnion (RegexUnion (Str2Reg "00") (Str2Reg "11")) (RegexPlus (Str2Reg "22"))))))))))))))
(assert (RegexIn var0 (RegexConcat (RegexPlus (RegexUnion (Str2Reg "i") (Str2Reg "j"))) (RegexConcat (RegexPlus (RegexUnion (Str2Reg "g") (Str2Reg "hhh"))) (RegexConcat (RegexUnion (RegexPlus (Str2Reg "ee")) (RegexPlus (Str2Reg "f"))) (RegexConcat (RegexUnion (RegexUnion (Str2Reg "bb") (Str2Reg "c")) (RegexPlus (Str2Reg "dd"))) (RegexConcat (RegexUnion (RegexPlus (Str2Reg "999")) (RegexPlus (Str2Reg "aa"))) (RegexConcat (RegexStar (RegexUnion (Str2Reg "7") (Str2Reg "88"))) (RegexConcat (RegexPlus (RegexUnion (Str2Reg "555") (Str2Reg "666"))) (RegexConcat (RegexStar (RegexStar (Str2Reg "4"))) (RegexConcat (RegexStar (RegexPlus (Str2Reg "3"))) (RegexUnion (RegexStar (Str2Reg "0")) (RegexUnion (Str2Reg "1") (Str2Reg "222"))))))))))))))
(assert (RegexIn var0 (RegexConcat (RegexPlus (RegexStar (Str2Reg "fff"))) (RegexConcat (RegexStar (RegexPlus (Str2Reg "e"))) (RegexConcat (RegexUnion (RegexStar (Str2Reg "c")) (RegexStar (Str2Reg "ddd"))) (RegexConcat (RegexUnion (RegexUnion (Str2Reg "8") (Str2Reg "999")) (RegexUnion (Str2Reg "a") (Str2Reg "b"))) (RegexConcat (RegexStar (RegexStar (Str2Reg "7"))) (RegexConcat (RegexPlus (RegexStar (Str2Reg "6"))) (RegexConcat (RegexPlus (RegexUnion (Str2Reg "444") (Str2Reg "555"))) (RegexConcat (RegexPlus (RegexStar (Str2Reg "3"))) (RegexConcat (RegexStar (RegexUnion (Str2Reg "11") (Str2Reg "22"))) (RegexStar (RegexStar (Str2Reg "000"))))))))))))))
(check-sat)